(set-logic QF_S)
(declare-fun var0 () String)
(assert (str.in.re var0 (re.++ (re.union (re.+ (str.to.re "00")) (re.+ (str.to.re "1"))) (re.++ (re.+ (re.union (str.to.re "222") (str.to.re "333"))) (re.++ (re.+ (re.+ (str.to.re "444"))) (re.++ (re.union (re.+ (str.to.re "555")) (re.+ (str.to.re "6"))) (re.++ (re.+ (re.union (str.to.re "77") (str.to.re "88"))) (re.++ (re.+ (re.+ (str.to.re "9"))) (re.++ (re.union (re.union (str.to.re "a") (str.to.re "bb")) (re.union (str.to.re "c") (str.to.re "ddd"))) (re.++ (re.* (re.* (str.to.re "ee"))) (re.++ (re.* (re.* (str.to.re "f"))) (re.++ (re.* (re.+ (str.to.re "g"))) (re.++ (re.union (re.+ (str.to.re "hhh")) (re.+ (str.to.re "iii"))) (re.++ (re.* (re.+ (str.to.re "jjj"))) (re.++ (re.union (re.+ (str.to.re "kkk")) (re.+ (str.to.re "l"))) (re.++ (re.+ (re.* (str.to.re "mmm"))) (re.++ (re.union (re.* (str.to.re "nn")) (re.* (str.to.re "o"))) (re.++ (re.union (re.+ (str.to.re "ppp")) (re.+ (str.to.re "qqq"))) (re.++ (re.+ (re.* (str.to.re "rr"))) (re.++ (re.* (re.+ (str.to.re "s"))) (re.++ (re.+ (re.* (str.to.re "tt"))) (re.++ (re.* (re.union (str.to.re "uuu") (str.to.re "vv"))) (re.++ (re.* (re.* (str.to.re "ww"))) (re.++ (re.* (re.+ (str.to.re "x"))) (re.++ (re.* (re.union (str.to.re "yyy") (str.to.re "zzz"))) (re.++ (re.+ (re.* (str.to.re "AA"))) (re.++ (re.* (re.union (str.to.re "BB") (str.to.re "CC"))) (re.++ (re.+ (re.+ (str.to.re "DD"))) (re.++ (re.+ (re.+ (str.to.re "E"))) (re.++ (re.union (re.union (str.to.re "F") (str.to.re "GGG")) (re.union (str.to.re "HHH") (str.to.re "III"))) (re.++ (re.* (re.+ (str.to.re "JJJ"))) (re.++ (re.union (re.+ (str.to.re "KKK")) (re.+ (str.to.re "L"))) (re.++ (re.* (re.+ (str.to.re "MMM"))) (re.++ (re.+ (re.union (str.to.re "NNN") (str.to.re "OOO"))) (re.++ (re.* (re.+ (str.to.re "PPP"))) (re.++ (re.* (re.* (str.to.re "Q"))) (re.++ (re.* (re.+ (str.to.re "RR"))) (re.++ (re.+ (re.* (str.to.re "SSS"))) (re.++ (re.* (re.* (str.to.re "T"))) (re.++ (re.union (re.+ (str.to.re "UUU")) (re.+ (str.to.re "VV"))) (re.++ (re.+ (re.* (str.to.re "WWW"))) (re.++ (re.+ (re.+ (str.to.re "XXX"))) (re.union (re.* (str.to.re "Y")) (re.* (str.to.re "ZZ")))))))))))))))))))))))))))))))))))))))))))))
(check-sat)